lab2/P2c-pulp.lp
\* P2c *\
Minimize
OBJ: z
Subject To
_C1: x_0_0 + x_0_1 + x_0_2 = 1
_C10: - 0.518722204574 x_0_1 - 1.1135840216 x_1_1 - 0.616482687421 x_2_1
 - 0.210054002541 x_3_1 - 0.684363087675 x_4_1 + z >= 0
_C11: - 0.37229616119 x_0_2 - 0.799239077774 x_1_2 - 0.442460600188 x_2_2
 - 0.150759497278 x_3_2 - 0.491179571946 x_4_2 + z >= 0
_C2: x_1_0 + x_1_1 + x_1_2 = 1
_C3: x_2_0 + x_2_1 + x_2_2 = 1
_C4: x_3_0 + x_3_1 + x_3_2 = 1
_C5: x_4_0 + x_4_1 + x_4_2 = 1
_C6: 261.27 x_0_0 + 560.89 x_1_0 + 310.51 x_2_0 + 105.8 x_3_0 + 344.7 x_4_0
 <= 505.67
_C7: 261.27 x_0_1 + 560.89 x_1_1 + 310.51 x_2_1 + 105.8 x_3_1 + 344.7 x_4_1
 <= 503.68
_C8: 261.27 x_0_2 + 560.89 x_1_2 + 310.51 x_2_2 + 105.8 x_3_2 + 344.7 x_4_2
 <= 701.78
_C9: - 0.516680839283 x_0_0 - 1.10920165325 x_1_0 - 0.614056598177 x_2_0
 - 0.209227361718 x_3_0 - 0.681669863745 x_4_0 + z >= 0
Bounds
z <= 1
Binaries
x_0_0
x_0_1
x_0_2
x_1_0
x_1_1
x_1_2
x_2_0
x_2_1
x_2_2
x_3_0
x_3_1
x_3_2
x_4_0
x_4_1
x_4_2
End
