lab2/P2c-pulp.sol
Problem:    
Rows:       11
Columns:    16 (15 integer, 15 binary)
Non-zeros:  48
Status:     INTEGER EMPTY
Objective:  OBJ = 0 (MINimum)

   No.   Row name        Activity     Lower bound   Upper bound
------ ------------    ------------- ------------- -------------
     1 _C1                         0             1             = 
     2 _C10                        0             0               
     3 _C11                        0             0               
     4 _C2                         0             1             = 
     5 _C3                         0             1             = 
     6 _C4                         0             1             = 
     7 _C5                         0             1             = 
     8 _C6                         0                      505.67 
     9 _C7                         0                      503.68 
    10 _C8                         0                      701.78 
    11 _C9                         0             0               

   No. Column name       Activity     Lower bound   Upper bound
------ ------------    ------------- ------------- -------------
     1 z                           0             0             1 
     2 x_0_0        *              0             0             1 
     3 x_0_1        *              0             0             1 
     4 x_0_2        *              0             0             1 
     5 x_1_1        *              0             0             1 
     6 x_2_1        *              0             0             1 
     7 x_3_1        *              0             0             1 
     8 x_4_1        *              0             0             1 
     9 x_1_2        *              0             0             1 
    10 x_2_2        *              0             0             1 
    11 x_3_2        *              0             0             1 
    12 x_4_2        *              0             0             1 
    13 x_1_0        *              0             0             1 
    14 x_2_0        *              0             0             1 
    15 x_3_0        *              0             0             1 
    16 x_4_0        *              0             0             1 

Integer feasibility conditions:

KKT.PE: max.abs.err = 0.00e+00 on row 0
        max.rel.err = 0.00e+00 on row 0
        High quality

KKT.PB: max.abs.err = 1.00e+00 on row 1
        max.rel.err = 5.00e-01 on row 1
        SOLUTION IS INFEASIBLE

End of output
